/*********************************************
    * Lab01 - simple
    * Author: Coso
    * Creation Date: Mar, 2019
    *********************************************/
instance_name = "medium_instance_15_simple";

d = 5;
r = 15;

SCj = [288 315 265 296 283];
Dk = [53 52 71 54 50 58 59 16 12 98 61 31 96 97 31];

Cjk = [[45 51 55 66 88 46 73 85 50 61 56 52 42 57 61]
 [48 34 77 69 72 65 81 44 59 49 48 55 82 81 49]
 [87 47 76 77 41 51 82 60 36 33 33 70 56 60 58]
 [62 89 85 44 44 48 69 84 71 87 81 37 44 83 89]
 [88 31 66 33 55 76 79 30 52 81 66 70 44 87 68]];
